This is Ipopt version 3.12.3, running with linear solver mumps.
NOTE: Other linear solvers might be more efficient (see Ipopt documentation).

Number of nonzeros in equality constraint Jacobian...:   295867
Number of nonzeros in inequality constraint Jacobian.:    62291
Number of nonzeros in Lagrangian Hessian.............:    74503

Total number of variables............................:    62291
                     variables with only lower bounds:        0
                variables with lower and upper bounds:        0
                     variables with only upper bounds:        0
Total number of equality constraints.................:    56056
Total number of inequality constraints...............:    62291
        inequality constraints with only lower bounds:        0
   inequality constraints with lower and upper bounds:    62291
        inequality constraints with only upper bounds:        0

iter    objective    inf_pr   inf_du lg(mu)  ||d||  lg(rg) alpha_du alpha_pr  ls
   0 6.1631900e-005 4.80e+002 1.02e-006  -1.0 0.00e+000    -  0.00e+000 0.00e+000   0
   1 1.5975603e+002 1.28e+002 1.27e+001  -1.0 1.91e+000    -  6.92e-002 1.00e+000h  1
   2 1.4754251e+002 5.98e+001 1.32e+001  -1.0 4.04e-001   0.0 7.30e-001 1.00e+000f  1
   3 1.4266013e+002 3.24e+001 4.49e+000  -1.0 2.81e-001  -0.5 9.92e-001 1.00e+000f  1
   4 1.4865706e+002 5.06e+000 3.97e-001  -1.0 1.44e-001  -0.1 1.00e+000 1.00e+000f  1
   5 8.2651532e+001 1.57e+001 1.48e-001  -1.7 2.23e-001  -0.5 1.00e+000 1.00e+000f  1
   6 6.2270826e+001 6.72e+000 1.00e-001  -1.7 1.27e-001  -0.1 1.00e+000 1.00e+000f  1
   7 3.4193019e+001 1.75e+001 5.59e-002  -2.5 1.85e-001  -0.6 9.81e-001 1.00e+000f  1
   8 2.0870933e+001 7.63e+000 5.06e-002  -2.5 1.79e-001  -1.1 1.00e+000 1.00e+000f  1
   9 1.7571763e+001 7.63e+000 5.00e-002  -2.5 3.83e-001  -1.5 1.00e+000 1.00e+000h  1
iter    objective    inf_pr   inf_du lg(mu)  ||d||  lg(rg) alpha_du alpha_pr  ls
  10 1.8058506e+001 2.56e+001 4.55e-002  -2.5 5.48e-001  -2.0 1.00e+000 1.00e+000h  1
  11 1.8313623e+001 4.94e-001 4.86e-003  -2.5 9.25e-002  -1.6 1.00e+000 1.00e+000h  1
  12 1.8662508e+001 3.10e+001 3.26e-002  -2.5 7.74e-001  -2.1 9.48e-001 1.00e+000h  1
  13 1.8749364e+001 4.20e+000 5.00e-003  -2.5 1.29e-001  -1.6 1.00e+000 1.00e+000h  1
  14 1.8790606e+001 2.12e+001 4.25e-002  -2.5 2.49e+000  -2.1 3.82e-001 3.84e-001h  2
  15 1.8837021e+001 2.55e+000 9.91e-003  -2.5 1.05e-001  -1.7 1.00e+000 1.00e+000h  1
  16 1.8887612e+001 3.10e+001 8.89e-003  -2.5 4.45e-001  -2.2 1.00e+000 1.00e+000h  1
  17 1.8899074e+001 1.75e+000 2.46e-003  -2.5 8.02e-002  -1.7 1.00e+000 1.00e+000h  1
  18 1.8904362e+001 2.51e+001 3.13e-002  -2.5 4.10e+000  -2.2 3.29e-001 2.35e-001h  2
  19 1.8910257e+001 3.28e+000 9.83e-003  -2.5 1.10e-001  -1.8 1.00e+000 1.00e+000h  1
iter    objective    inf_pr   inf_du lg(mu)  ||d||  lg(rg) alpha_du alpha_pr  ls
  20 1.8916179e+001 3.04e+001 1.58e-002  -2.5 3.79e-001  -2.3 1.00e+000 1.00e+000h  1
  21 1.8918366e+001 1.51e+001 9.91e-003  -2.5 2.37e-001  -1.8 1.00e+000 1.00e+000h  1
  22 1.8918667e+001 8.67e-001 2.16e-003  -2.5 5.57e-002  -1.4 1.00e+000 1.00e+000h  1
  23 1.8919569e+001 1.67e+001 1.09e-002  -2.5 3.32e-001  -1.9 1.00e+000 1.00e+000h  1
  24 1.8920444e+001 1.30e+001 6.26e-003  -2.5 3.08e-001  -2.4 1.00e+000 1.00e+000h  1
  25 1.8920741e+001 1.35e+000 1.41e-003  -2.5 9.98e-002  -1.9 1.00e+000 1.00e+000h  1
  26 1.8920865e+001 4.32e-001 1.50e-003  -2.5 4.69e-002  -1.5 1.00e+000 1.00e+000h  1
  27 1.5392173e+001 1.81e+000 5.19e-002  -3.8 9.62e-002  -2.0 8.28e-001 1.00e+000f  1
  28 1.0637925e+001 7.54e+000 1.33e-002  -3.8 2.67e-001  -2.5 7.77e-001 1.00e+000h  1
  29 5.7992850e+000 2.00e+001 1.76e-003  -3.8 3.90e-001  -2.9 1.00e+000 1.00e+000h  1
iter    objective    inf_pr   inf_du lg(mu)  ||d||  lg(rg) alpha_du alpha_pr  ls
  30 4.0312449e+000 2.10e+001 1.28e-003  -3.8 4.70e-001  -3.4 1.00e+000 1.00e+000h  1
  31 3.9437213e+000 2.64e+000 2.43e-004  -3.8 1.20e-001  -3.0 1.00e+000 1.00e+000h  1
  32 3.9390413e+000 1.78e+001 7.01e-003  -3.8 2.09e+000  -3.5 3.76e-001 1.53e-001h  2
  33 3.9187749e+000 5.08e-001 6.53e-004  -3.8 1.37e-001  -3.1 1.00e+000 1.00e+000h  1
  34 3.9118873e+000 5.01e+001 2.21e-003  -3.8 3.85e-001  -3.5 1.00e+000 1.00e+000h  1
  35 3.9102898e+000 3.15e+001 1.45e-003  -3.8 3.50e-001  -4.0 1.00e+000 1.00e+000h  1
  36 3.9099483e+000 4.09e+000 4.42e-004  -3.8 1.33e-001  -3.6 1.00e+000 1.00e+000h  1
  37 3.9099116e+000 9.06e+000 1.48e-003  -3.8 5.22e+000  -4.1 1.00e+000 5.87e-002h  5
  38 3.9098655e+000 8.70e+000 6.21e-003  -3.8 1.78e+000  -4.5 5.29e-001 3.98e-002h  5
  39 3.9096056e+000 1.39e+000 2.52e-004  -3.8 1.79e-001    -  1.00e+000 1.00e+000h  1
iter    objective    inf_pr   inf_du lg(mu)  ||d||  lg(rg) alpha_du alpha_pr  ls
  40 3.9095661e+000 1.88e+000 1.70e-003  -3.8 7.25e-001  -5.0 1.00e+000 1.25e-001h  4
  41 3.9095243e+000 2.46e+000 2.49e-003  -3.8 9.62e-001    -  1.00e+000 1.25e-001h  4
  42 3.9094473e+000 9.45e-002 1.30e-005  -3.8 3.24e-002    -  1.00e+000 1.00e+000h  1
  43 3.9094454e+000 3.85e-002 2.21e-006  -3.8 8.40e-003  -3.7 1.00e+000 1.00e+000h  1
  44 3.9094440e+000 1.20e-002 2.78e-006  -3.8 4.78e-003  -3.3 1.00e+000 1.00e+000h  1
  45 3.7971455e+000 3.09e+001 7.71e-003  -5.7 6.23e+000  -3.7 2.21e-001 4.57e-002f  1
  46 2.2285441e+000 1.11e+002 6.14e-003  -5.7 1.35e+000    -  4.78e-001 6.84e-001f  1
  47 1.8462982e+000 6.73e+001 6.27e-003  -5.7 5.20e-001  -3.3 2.17e-001 3.94e-001h  1
  48 1.5928071e+000 3.75e+001 5.52e-003  -5.7 1.60e-001  -2.9 2.52e-001 4.43e-001h  1
  49 1.3631712e+000 2.07e+001 2.94e-003  -5.7 4.25e-001  -3.4 4.57e-001 4.48e-001h  1
iter    objective    inf_pr   inf_du lg(mu)  ||d||  lg(rg) alpha_du alpha_pr  ls
  50 1.1909562e+000 1.14e+001 3.26e-003  -5.7 3.35e-001  -3.8 2.36e-001 4.48e-001h  1
  51 1.1712250e+000 1.44e+001 2.95e-003  -5.7 9.06e+000  -4.3 8.63e-002 7.89e-002h  1
  52 1.0455628e+000 2.22e+001 3.51e-003  -5.7 1.13e+000    -  2.13e-001 5.64e-001h  1
  53 1.0294602e+000 1.91e+001 3.24e-003  -5.7 1.39e+000    -  3.64e-001 1.41e-001h  1
  54 1.0286833e+000 1.89e+001 3.15e-003  -5.7 8.78e+001    -  3.89e-003 9.08e-003h  1
  55 9.5733335e-001 2.29e+001 3.69e-003  -5.7 1.05e+000    -  4.22e-001 7.51e-001h  1
  56 9.5656309e-001 2.24e+001 3.60e-003  -5.7 1.02e+001  -3.9 1.44e-001 2.31e-002h  1
  57 9.2666944e-001 1.03e+001 1.52e-003  -5.7 7.24e-001  -4.4 7.79e-001 1.00e+000h  1
  58 9.2248249e-001 4.35e+000 1.73e-004  -5.7 2.44e-001  -3.9 1.00e+000 1.00e+000h  1
  59 9.2191026e-001 9.69e-001 7.12e-005  -5.7 1.42e-001  -3.5 1.00e+000 1.00e+000h  1
iter    objective    inf_pr   inf_du lg(mu)  ||d||  lg(rg) alpha_du alpha_pr  ls
  60 9.2161040e-001 1.15e+001 6.42e-004  -5.7 5.10e-001  -4.0 1.00e+000 1.00e+000h  1
  61 9.2150558e-001 1.57e-001 3.84e-005  -5.7 1.28e-001  -3.6 1.00e+000 1.00e+000h  1
  62 9.2141084e-001 3.46e+000 3.61e-004  -5.7 1.73e+000  -4.0 1.00e+000 2.79e-001h  2
  63 9.2117106e-001 1.20e+001 2.37e-004  -5.7 3.43e-001    -  7.27e-001 1.00e+000h  1
  64 9.2114414e-001 1.36e-001 2.49e-005  -5.7 9.60e-002  -3.6 1.00e+000 1.00e+000h  1
  65 9.2112498e-001 3.74e+000 4.25e-005  -5.7 1.52e-001  -4.1 1.00e+000 1.00e+000h  1
  66 9.2108229e-001 1.40e+000 1.08e-004  -5.7 1.23e-001  -3.7 1.00e+000 1.00e+000h  1
  67 9.2103059e-001 4.20e+000 3.99e-004  -5.7 2.29e+000    -  8.84e-001 1.12e-001h  2
  68 9.2101389e-001 8.53e-001 2.01e-005  -5.7 1.17e-001  -4.1 1.00e+000 1.00e+000h  1
  69 9.2101266e-001 2.93e-002 1.88e-005  -5.7 1.22e-002  -2.8 1.00e+000 1.00e+000h  1
iter    objective    inf_pr   inf_du lg(mu)  ||d||  lg(rg) alpha_du alpha_pr  ls
  70 9.2101292e-001 6.50e-001 4.59e-005  -5.7 6.89e-002  -3.3 1.00e+000 1.00e+000h  1
  71 9.2100925e-001 3.40e-001 5.30e-005  -5.7 3.87e-002  -2.9 1.00e+000 1.00e+000h  1
  72 9.2100714e-001 2.59e+000 1.48e-004  -5.7 1.33e-001  -3.3 1.00e+000 1.00e+000h  1
  73 9.2100318e-001 7.13e-001 2.70e-005  -5.7 1.13e-001    -  1.00e+000 1.00e+000h  1
  74 9.2100577e-001 4.90e-002 2.62e-006  -5.7 1.71e-002    -  1.00e+000 1.00e+000h  1
  75 9.2100594e-001 1.49e-004 1.47e-008  -5.7 1.96e-003    -  1.00e+000 1.00e+000h  1
  76 9.2100594e-001 2.56e-008 9.00e-013  -5.7 2.43e-005    -  1.00e+000 1.00e+000h  1
  77 9.0311738e-001 5.97e+000 1.81e-003  -7.0 8.70e-001    -  2.41e-001 5.23e-001f  1
  78 9.0193717e-001 6.89e+000 5.53e-004  -7.0 2.62e+000    -  2.39e-001 6.89e-002h  1
  79 8.9387286e-001 3.21e+000 3.11e-003  -7.0 2.54e-001    -  5.31e-002 5.50e-001h  1
iter    objective    inf_pr   inf_du lg(mu)  ||d||  lg(rg) alpha_du alpha_pr  ls
  80 8.9088659e-001 2.56e+000 2.35e-003  -7.0 1.81e-001    -  3.71e-001 4.78e-001h  1
  81 8.8898453e-001 1.46e+000 7.88e-004  -7.0 3.64e-002  -3.8 6.36e-001 6.08e-001h  1
  82 8.8826361e-001 2.39e+001 9.44e-004  -7.0 3.27e-001  -4.3 8.14e-001 5.17e-001h  1
  83 8.8757787e-001 1.24e+001 1.48e-004  -7.0 1.85e-001  -3.9 8.73e-001 1.00e+000h  1
  84 8.8752547e-001 4.00e+000 1.90e-004  -7.0 1.56e-001  -4.3 6.14e-001 1.00e+000h  1
  85 8.8749929e-001 4.09e-001 2.20e-004  -7.0 1.58e-001  -3.9 1.00e+000 1.00e+000h  1
  86 8.8749770e-001 2.26e-002 2.71e-005  -7.0 1.15e-002  -3.5 8.12e-001 1.00e+000h  1
  87 8.8748978e-001 3.91e+000 4.08e-005  -7.0 1.20e-001  -4.0 1.00e+000 1.00e+000H  1
  88 8.8749188e-001 2.23e+000 1.52e-004  -7.0 1.92e-001    -  1.13e-001 5.00e-001h  2
  89 8.8748760e-001 8.98e-001 2.49e-004  -7.0 5.01e-001    -  1.00e+000 4.67e-001H  1
iter    objective    inf_pr   inf_du lg(mu)  ||d||  lg(rg) alpha_du alpha_pr  ls
  90 8.8748738e-001 8.87e-001 1.77e-003  -7.0 3.43e+000    -  2.39e-001 1.21e-002h  5
  91 8.8748545e-001 2.81e+000 1.69e-003  -7.0 1.61e-001  -4.4 2.90e-002 1.00e+000h  1
  92 8.8748347e-001 3.04e-001 1.77e-005  -7.0 1.17e-001  -4.9 1.00e+000 1.00e+000h  1
  93 8.8748303e-001 2.87e-001 1.39e-003  -7.0 7.81e-001  -5.4 1.00e+000 5.54e-002h  5
  94 8.8748472e-001 1.78e-001 3.29e-006  -7.0 1.45e-001  -5.0 1.00e+000 1.00e+000h  1
  95 8.8747478e-001 3.28e-002 1.99e-006  -7.0 6.98e-002  -4.6 1.00e+000 1.00e+000h  1
  96 8.8743828e-001 5.71e-001 5.99e-007  -7.0 2.78e-001  -5.0 1.00e+000 1.00e+000H  1
  97 8.8745270e-001 2.39e-001 1.50e-003  -7.0 1.09e+000  -5.5 1.00e+000 1.63e-001h  3
  98 8.8743628e-001 6.42e-001 4.70e-006  -7.0 3.16e-001    -  1.00e+000 1.00e+000H  1
  99 8.8744703e-001 3.81e-001 2.73e-003  -7.0 3.19e+000  -6.0 5.90e-001 5.46e-002h  3
iter    objective    inf_pr   inf_du lg(mu)  ||d||  lg(rg) alpha_du alpha_pr  ls
 100 8.8745798e-001 1.05e-001 2.25e-004  -7.0 1.97e-001    -  1.00e+000 5.00e-001h  2
 101 8.8746155e-001 1.13e-002 4.83e-007  -7.0 3.37e-002    -  1.00e+000 1.00e+000h  1
 102 8.8746101e-001 5.35e-005 2.68e-009  -7.0 2.36e-003    -  1.00e+000 1.00e+000h  1
 103 8.8746101e-001 3.00e-009 1.77e-013  -7.0 1.93e-005    -  1.00e+000 1.00e+000h  1

Number of Iterations....: 103

                                   (scaled)                 (unscaled)
Objective...............:  8.8746101231686692e-001   8.8746101231686692e-001
Dual infeasibility......:  1.7654063974581469e-013   1.7654063974581469e-013
Constraint violation....:  2.3365274695961506e-010   2.9997977435414214e-009
Complementarity.........:  9.0909091502169289e-008   9.0909091502169289e-008
Overall NLP error.......:  9.0909091502169289e-008   9.0909091502169289e-008


Number of objective function evaluations             = 164
Number of objective gradient evaluations             = 104
Number of equality constraint evaluations            = 164
Number of inequality constraint evaluations          = 164
Number of equality constraint Jacobian evaluations   = 104
Number of inequality constraint Jacobian evaluations = 104
Number of Lagrangian Hessian evaluations             = 103
Total CPU secs in IPOPT (w/o function evaluations)   =     61.844
Total CPU secs in NLP function evaluations           =     10.566

EXIT: Optimal Solution Found.
               t_proc [s]   t_wall [s]    n_eval
       nlp_f        0.138        0.136       164
       nlp_g         1.11         1.11       164
  nlp_grad_f        0.183        0.183       105
  nlp_hess_l         4.29         4.28       103
   nlp_jac_g         4.72         4.72       105
      solver         72.4         72.4         1
